81
74
39
68
10
15
57
48
83
45
28
32
47
64
92
20
84
91
86
25
71
41
93
70
4
60
72
7
23
88
56
55
16
30
38
31
42
87
21
40
77
11
65
95
96
62
89
1
3
18
19
61
98
17
8
85
6
79
0
35
12
63
66
22
5
44
43
26
82
51
2
13
54
50
52
34
76
46
99
97
27
59
67
24
37
53
69
58
33
9
80
78
90
49
75
29
36
14
94
73
